28 28
22
3 3   9 19
3 4   25 24
3 5   12 23
3 6   4 22
3 7   19 21
3 8   25 16
3 9   9 10
3 10   9 0
3 11   22 17
3 16   25 0
3 17   22 0
3 21   19 0
3 23   16 0
4 3   0 25
4 4   0 21
4 5   15 23
4 8   0 13
4 13   5 0
4 23   12 0
5 6   7 22
5 9   4 13
5 13   0 0